c generated by sgen
p cnf 53 116
-2 -3 -4 0
-1 -3 -4 0
-1 -2 -4 0
-1 -2 -3 0
-6 -7 -8 0
-5 -7 -8 0
-5 -6 -8 0
-5 -6 -7 0
-10 -11 -12 0
-9 -11 -12 0
-9 -10 -12 0
-9 -10 -11 0
-14 -15 -16 0
-13 -15 -16 0
-13 -14 -16 0
-13 -14 -15 0
-18 -19 -20 0
-17 -19 -20 0
-17 -18 -20 0
-17 -18 -19 0
-22 -23 -24 0
-21 -23 -24 0
-21 -22 -24 0
-21 -22 -23 0
-26 -27 -28 0
-25 -27 -28 0
-25 -26 -28 0
-25 -26 -27 0
-30 -31 -32 0
-29 -31 -32 0
-29 -30 -32 0
-29 -30 -31 0
-34 -35 -36 0
-33 -35 -36 0
-33 -34 -36 0
-33 -34 -35 0
-38 -39 -40 0
-37 -39 -40 0
-37 -38 -40 0
-37 -38 -39 0
-42 -43 -44 0
-41 -43 -44 0
-41 -42 -44 0
-41 -42 -43 0
-46 -47 -48 0
-45 -47 -48 0
-45 -46 -48 0
-45 -46 -47 0
-49 -50 -51 0
-49 -50 -52 0
-49 -50 -53 0
-49 -51 -52 0
-49 -51 -53 0
-49 -52 -53 0
-50 -51 -52 0
-50 -51 -53 0
-50 -52 -53 0
-51 -52 -53 0
6 29 33 0
16 29 33 0
16 6 33 0
16 6 29 0
48 8 39 0
50 8 39 0
50 48 39 0
50 48 8 0
27 2 5 0
18 2 5 0
18 27 5 0
18 27 2 0
14 12 17 0
47 12 17 0
47 14 17 0
47 14 12 0
38 23 34 0
19 23 34 0
19 38 34 0
19 38 23 0
35 3 9 0
52 3 9 0
52 35 9 0
52 35 3 0
45 36 44 0
26 36 44 0
26 45 44 0
26 45 36 0
41 7 10 0
21 7 10 0
21 41 10 0
21 41 7 0
49 43 31 0
20 43 31 0
20 49 31 0
20 49 43 0
42 40 4 0
13 40 4 0
13 42 4 0
13 42 40 0
15 28 22 0
51 28 22 0
51 15 22 0
51 15 28 0
32 1 24 0
46 1 24 0
46 32 24 0
46 32 1 0
11 37 30 0
11 37 53 0
11 37 25 0
11 30 53 0
11 30 25 0
11 53 25 0
37 30 53 0
37 30 25 0
37 53 25 0
30 53 25 0
